p cnf 108 378
2 1 0
2 1 0
-1 -2 0
-4 2 0
-4 3 0
-2 -3 4 0
-8 -6 0
-8 7 0
6 -7 8 0
10 -9 0
10 -3 0
9 3 -10 0
11 -8 0
11 10 0
8 -10 -11 0
13 -11 0
13 -12 0
11 12 -13 0
5 13 -14 0
-5 -13 -14 0
5 -13 14 0
-5 13 14 0
-4 -14 -15 0
4 14 -15 0
-4 14 15 0
4 -14 15 0
-18 -8 0
-18 17 0
8 -17 18 0
-19 -16 0
-19 18 0
16 -18 19 0
-20 15 0
-20 19 0
-15 -19 20 0
13 7 -21 0
-13 -7 -21 0
13 -7 21 0
-13 7 21 0
-22 -15 0
-22 21 0
15 -21 22 0
24 -22 0
24 23 0
22 -23 -24 0
20 -24 -25 0
-20 24 -25 0
20 24 25 0
-20 -24 25 0
-1 7 -26 0
1 -7 -26 0
-1 -7 26 0
1 7 26 0
28 26 0
28 27 0
-26 -27 -28 0
-28 13 -29 0
28 -13 -29 0
-28 -13 29 0
28 13 29 0
-29 -30 -31 0
29 30 -31 0
-29 30 31 0
29 -30 31 0
11 -31 -32 0
-11 31 -32 0
11 31 32 0
-11 -31 32 0
34 5 0
34 -11 0
-5 11 -34 0
35 33 0
35 34 0
-33 -34 -35 0
-36 5 0
-36 -7 0
-5 7 36 0
37 35 0
37 -36 0
-35 36 -37 0
-38 32 0
-38 37 0
-32 -37 38 0
39 25 0
39 38 0
-25 -38 -39 0
40 -9 0
40 27 0
9 -27 -40 0
-41 19 0
-41 -40 0
-19 40 41 0
-42 34 0
-42 13 0
-34 -13 42 0
-30 42 -43 0
30 -42 -43 0
-30 -42 43 0
30 42 43 0
41 43 -44 0
-41 -43 -44 0
41 -43 44 0
-41 43 44 0
-33 7 -45 0
33 -7 -45 0
-33 -7 45 0
33 7 45 0
-46 6 0
-46 -45 0
-6 45 46 0
47 -46 0
47 -9 0
46 9 -47 0
48 -10 0
48 -47 0
10 47 -48 0
49 44 0
49 -48 0
-44 48 -49 0
-50 -8 0
-50 26 0
8 -26 50 0
-51 50 0
-51 46 0
-50 -46 51 0
-52 26 0
-52 27 0
-26 -27 52 0
53 -33 0
53 -21 0
33 21 -53 0
52 -53 -54 0
-52 53 -54 0
52 53 54 0
-52 -53 54 0
-55 -30 0
-55 17 0
30 -17 55 0
-56 -55 0
-56 28 0
55 -28 56 0
57 -56 0
57 7 0
56 -7 -57 0
-58 54 0
-58 57 0
-54 -57 58 0
51 -58 -59 0
-51 58 -59 0
51 58 59 0
-51 -58 59 0
49 -59 -60 0
-49 59 -60 0
49 59 60 0
-49 -59 60 0
61 -39 0
61 60 0
39 -60 -61 0
-62 15 0
-62 19 0
-15 -19 62 0
-10 55 -63 0
10 -55 -63 0
-10 -55 63 0
10 55 63 0
-64 -63 0
-64 63 0
64 18 -65 0
-64 -18 -65 0
64 -18 65 0
-64 18 65 0
62 -65 -66 0
-62 65 -66 0
62 65 66 0
-62 -65 66 0
68 67 0
68 -55 0
-67 55 -68 0
-68 -18 -69 0
68 18 -69 0
-68 18 69 0
68 -18 69 0
-66 -69 -70 0
66 69 -70 0
-66 69 70 0
66 -69 70 0
-71 28 0
-71 65 0
-28 -65 71 0
35 4 -72 0
-35 -4 -72 0
35 -4 72 0
-35 4 72 0
-27 -72 -73 0
27 72 -73 0
-27 72 73 0
27 -72 73 0
74 -8 0
74 67 0
8 -67 -74 0
75 -73 0
75 74 0
73 -74 -75 0
-76 71 0
-76 -75 0
-71 75 76 0
-70 76 -77 0
70 -76 -77 0
-70 -76 77 0
70 76 77 0
78 -67 0
78 10 0
67 -10 -78 0
-79 78 0
-79 67 0
-78 -67 79 0
-80 -33 0
-80 -18 0
33 18 80 0
-79 80 -81 0
79 -80 -81 0
-79 -80 81 0
79 80 81 0
82 28 0
82 10 0
-28 -10 -82 0
-83 13 0
-83 14 0
-13 -14 83 0
84 -82 0
84 -83 0
82 83 -84 0
-85 -81 0
-85 84 0
81 -84 85 0
77 -85 -86 0
-77 85 -86 0
77 85 86 0
-77 -85 86 0
-61 86 -87 0
61 -86 -87 0
-61 -86 87 0
61 86 87 0
-45 -1 -88 0
45 1 -88 0
-45 1 88 0
45 -1 88 0
-34 -88 -89 0
34 88 -89 0
-34 88 89 0
34 -88 89 0
-10 -72 -90 0
10 72 -90 0
-10 72 90 0
10 -72 90 0
-91 -89 0
-91 -90 0
89 90 91 0
-92 87 0
-92 -91 0
-87 91 92 0
93 -72 0
93 55 0
72 -55 -93 0
-94 -55 0
-94 93 0
55 -93 94 0
95 -94 0
95 40 0
94 -40 -95 0
47 -56 -96 0
-47 56 -96 0
47 56 96 0
-47 -56 96 0
96 -55 -97 0
-96 55 -97 0
96 55 97 0
-96 -55 97 0
-98 79 0
-98 19 0
-79 -19 98 0
99 28 0
99 -34 0
-28 34 -99 0
-100 -98 0
-100 99 0
98 -99 100 0
97 100 -101 0
-97 -100 -101 0
97 -100 101 0
-97 100 101 0
102 -95 0
102 -101 0
95 101 -102 0
103 50 0
103 -30 0
-50 30 -103 0
55 103 -104 0
-55 -103 -104 0
55 -103 104 0
-55 103 104 0
105 9 0
105 40 0
-9 -40 -105 0
106 104 0
106 105 0
-104 -105 -106 0
102 106 -107 0
-102 -106 -107 0
102 -106 107 0
-102 106 107 0
108 -92 0
108 -107 0
92 107 -108 0
71 21 -91 0
-94 -98 -32 67 -37 -61 0
93 -86 -19 47 0
41 -37 74 91 73 69 0
101 27 53 0
-49 90 0
86 46 15 13 0
15 18 40 -54 7 0
-87 56 58 -7 0
-24 98 107 -87 89 104 0
-80 -66 -95 0
101 74 -46 75 99 78 0
44 -65 0
-29 -3 -42 0
-106 -62 83 99 76 0
-29 106 103 -101 0
8 87 48 0
-21 77 42 40 0
45 -26 0
26 -52 0
67 -1 69 73 -107 76 0
-20 -37 -13 15 -80 0
-45 -66 -62 -84 56 0
40 4 -27 -60 -8 65 0
75 -32 107 -53 25 0
75 105 0
56 -13 0
-9 -57 39 85 0
-70 45 16 69 -44 -27 0
-65 -87 0
-72 74 53 0
-79 -22 105 0
-45 50 -25 0
-11 74 -58 50 -18 -103 0
-26 -96 22 0
26 108 0
44 -13 -99 0
14 82 0
-2 -87 -42 60 71 0
-54 -101 0
-22 -16 -92 0
-39 34 -17 -28 0
-68 32 22 -44 6 0
14 21 -50 85 -31 0
22 -68 34 -84 0
-36 42 11 91 0
62 -93 65 0
-42 31 68 38 0
-76 -82 -4 -9 0
57 -34 -8 -40 52 0
27 -64 77 -70 15 0
-104 22 -39 19 0
51 43 -77 -80 2 0
95 77 0
-71 -38 99 0
10 -16 41 -89 0
24 98 0
-42 56 -54 -65 -89 0
106 16 -11 -94 -32 39 0
43 78 -96 -82 4 0
84 -72 78 0
82 63 -97 -3 -81 -46 0
-4 64 42 80 0
108 0
